93 93
42 77
30 50
7 9
19 86
11 60
40 56
44 22
24 42
16 67
10 45
17 41
30 91
27 36
35 28
12 64
1 83
20 24
8 48
44 51
27 23
18 90
22 84
25 52
38 59
37 54
28 43
45 55
15 32
4 66
11 87
34 47
6 13
31 11
17 20
43 2
40 46
7 29
45 18
22 74
3 37
35 30
33 15
13 6
31 92
33 65
29 31
14 76
16 81
32 26
39 82
26 16
1 73
36 80
41 10
46 71
28 17
21 85
12 53
26 62
20 19
39 57
32 58
5 34
1 1
10 63
6 79
24 89
21 14
2 3
42 75
18 7
4 44
25 8
43 78
3 93
14 70
34 68
9 61
23 33
8 21
46 39
37 5
2 25
9 88
13 72
23 49
29 38
36 12
38 69
15 27
41 4
19 35
5 40
